Route #1: 54 8 76 41 61 46 69 65 42 51 3 33 75 44 7
Route #2: 34 22 20 67 62 114 102 95 129 96 88 106 100 94 36 31
Route #3: 52 35 66 56 123 43 142 79 78 19 18 64 12 47 98
Route #4: 59 50 45 152 136 91 120 158 81 74 92 155 156 72 127 25
Route #5: 115 141 135 119 144 105 139 17 77 161 83 104 63 113 70
Route #6: 126 138 149 89 97 14 133 107 122 84 160 85 147 121
Route #7: 159 110 153 128 124 134 148 109 2 82 118 30 157 112 40
Route #8: 15 29 10 143 55 1 117 27 9 21 60 132 93 103
Route #9: 80 53 86 90 145 28 150 137 39 146 151 101 4 87 108 125
Route #10: 26 48 23 24 49 6 37 131 57 32 16 5 71 13
Route #11: 68 11 73 38 58 130 99 140 154 111 116
Cost 16922
